15
1 0 1
3 1 1
5 0 1
5 1 1
5 3 1
6 1 1
6 3 1
6 4 1
6 5 1
7 3 1
7 4 1
8 0 1
8 2 1
8 3 1
8 4 1
8 6 1
9 4 1
10 0 1
10 1 1
10 2 1
10 4 1
10 6 1
10 9 1
11 0 1
11 1 1
11 2 1
11 6 1
11 7 1
11 9 1
11 10 1
12 0 1
12 1 1
12 3 1
12 4 1
12 5 1
12 6 1
12 7 1
12 8 1
12 9 1
12 10 1
13 0 1
13 1 1
13 6 1
13 7 1
13 9 1
13 10 1
13 11 1
14 1 1
14 2 1
14 3 1
14 4 1
14 5 1
14 7 1
14 9 1
14 10 1
14 11 1
14 12 1
